0 0 0 0
0 1 0 0
0 2 1 0
0 3 0 0
0 4 0 4
0 5 0 4
0 6 0 3
0 7 1 5
0 8 0 7
0 9 2 2
0 10 0 7
0 11 0 6
0 12 0 12
0 13 0 10
0 14 0 13
0 15 2 13
0 16 0 11
0 17 1 8
0 18 0 13
0 19 1 10
0 20 2 14
0 21 0 16
0 22 2 21
0 23 1 17
0 24 1 21
0 25 0 14
0 26 0 17
0 27 0 21
0 28 0 29
0 29 0 29
0 30 0 25
0 31 0 30
